c File: instances/20_0.25_2.col
c
c Description: Random graph of size 20 vertices and P(0.25) of edges between any two vertices.
p col 20 190
e 1 3
e 1 5
e 1 10
e 1 14
e 2 5
e 3 6
e 3 9
e 3 12
e 3 14
e 3 18
e 4 9
e 4 14
e 4 18
e 4 20
e 5 14
e 6 10
e 6 12
e 6 13
e 6 18
e 6 20
e 7 9
e 7 12
e 7 15
e 7 16
e 8 11
e 8 14
e 9 10
e 9 12
e 9 13
e 9 16
e 9 20
e 10 12
e 10 14
e 10 18
e 11 12
e 11 13
e 12 18
e 14 15
e 16 17
e 19 20